Route #1: 0 146 6 94 95 98 93 61 119 144 13 105 53 0
Route #2: 0 137 97 16 141 44 142 15 41 72 21 54 149 40 0
Route #3: 0 26 145 22 133 39 139 4 55 130 150 76 1 132 0
Route #4: 0 50 122 32 63 62 148 48 82 31 69 27 0
Route #5: 0 28 77 116 68 24 121 79 129 34 9 102 0
Route #6: 0 101 51 81 120 136 65 30 108 90 19 88 127 0
Route #7: 0 111 109 80 29 134 25 110 56 23 74 87 58 112 0
Route #8: 0 147 96 99 104 85 86 91 100 42 43 2 115 73 0
Route #9: 0 89 59 92 57 14 113 45 118 60 18 7 106 52 0
Route #10: 0 117 37 38 140 17 84 5 83 125 114 8 46 36 47 124 123 0
Route #11: 0 3 78 33 103 20 128 131 126 64 49 143 107 11 10 70 0
Route #12: 0 66 71 35 135 67 75 12 138 0
Cost 1632:
